data/lp_files/pEFS/67_8.lp
\ Model foo
\ LP format - for model browsing. Use MPS format to capture full model detail.
Minimize
  z
Subject To
 allocateEach[1]: x[1,1] + x[2,1] + x[3,1] + x[4,1] = 1
 allocateEach[2]: x[1,2] + x[2,2] + x[3,2] + x[4,2] = 1
 allocateEach[3]: x[1,3] + x[2,3] + x[3,3] + x[4,3] = 1
 allocateEach[4]: x[1,4] + x[2,4] + x[3,4] + x[4,4] = 1
 allocateEach[5]: x[1,5] + x[2,5] + x[3,5] + x[4,5] = 1
 allocateEach[6]: x[1,6] + x[2,6] + x[3,6] + x[4,6] = 1
 allocateEach[7]: x[1,7] + x[2,7] + x[3,7] + x[4,7] = 1
 allocateAllCash: cashProportion[1] + cashProportion[2] + cashProportion[3]
   + cashProportion[4] = 1
 findWorstP[1,2]: z + 0.1443261771603825 cashProportion[1]
   - 0.1443261771603825 cashProportion[2] + 0.1683384448854411 x[1,1]
   + 0.0712069276565037 x[1,2] + 0.1680317517589753 x[1,3]
   + 0.00418545913765109 x[1,4] + 0.1504059173732636 x[1,5]
   + 0.1751578567562692 x[1,6] + 0.1183474652715136 x[1,7]
   - 0.1683384448854411 x[2,1] - 0.0712069276565037 x[2,2]
   - 0.1680317517589753 x[2,3] - 0.00418545913765109 x[2,4]
   - 0.1504059173732636 x[2,5] - 0.1751578567562692 x[2,6]
   - 0.1183474652715136 x[2,7] >= 0
 findWorstP[1,3]: z + 0.1443261771603825 cashProportion[1]
   - 0.1443261771603825 cashProportion[3] + 0.1683384448854411 x[1,1]
   + 0.0712069276565037 x[1,2] + 0.1680317517589753 x[1,3]
   + 0.00418545913765109 x[1,4] + 0.1504059173732636 x[1,5]
   + 0.1751578567562692 x[1,6] + 0.1183474652715136 x[1,7]
   - 0.1683384448854411 x[3,1] - 0.0712069276565037 x[3,2]
   - 0.1680317517589753 x[3,3] - 0.00418545913765109 x[3,4]
   - 0.1504059173732636 x[3,5] - 0.1751578567562692 x[3,6]
   - 0.1183474652715136 x[3,7] >= 0
 findWorstP[1,4]: z + 0.1443261771603825 cashProportion[1]
   - 0.1443261771603825 cashProportion[4] + 0.1683384448854411 x[1,1]
   + 0.0712069276565037 x[1,2] + 0.1680317517589753 x[1,3]
   + 0.00418545913765109 x[1,4] + 0.1504059173732636 x[1,5]
   + 0.1751578567562692 x[1,6] + 0.1183474652715136 x[1,7]
   - 0.1683384448854411 x[4,1] - 0.0712069276565037 x[4,2]
   - 0.1680317517589753 x[4,3] - 0.00418545913765109 x[4,4]
   - 0.1504059173732636 x[4,5] - 0.1751578567562692 x[4,6]
   - 0.1183474652715136 x[4,7] >= 0
 findWorstP[2,1]: z - 0.146686713850893 cashProportion[1]
   + 0.146686713850893 cashProportion[2] - 0.1461733103524148 x[1,1]
   - 0.0569327808133778 x[1,2] - 0.1383805786790862 x[1,3]
   - 0.1357585536690014 x[1,4] - 0.1152957570868019 x[1,5]
   - 0.0886904543620962 x[1,6] - 0.1720818511863288 x[1,7]
   + 0.1461733103524148 x[2,1] + 0.0569327808133778 x[2,2]
   + 0.1383805786790862 x[2,3] + 0.1357585536690014 x[2,4]
   + 0.1152957570868019 x[2,5] + 0.0886904543620962 x[2,6]
   + 0.1720818511863288 x[2,7] >= 0
 findWorstP[2,3]: z + 0.146686713850893 cashProportion[2]
   - 0.146686713850893 cashProportion[3] + 0.1461733103524148 x[2,1]
   + 0.0569327808133778 x[2,2] + 0.1383805786790862 x[2,3]
   + 0.1357585536690014 x[2,4] + 0.1152957570868019 x[2,5]
   + 0.0886904543620962 x[2,6] + 0.1720818511863288 x[2,7]
   - 0.1461733103524148 x[3,1] - 0.0569327808133778 x[3,2]
   - 0.1383805786790862 x[3,3] - 0.1357585536690014 x[3,4]
   - 0.1152957570868019 x[3,5] - 0.0886904543620962 x[3,6]
   - 0.1720818511863288 x[3,7] >= 0
 findWorstP[2,4]: z + 0.146686713850893 cashProportion[2]
   - 0.146686713850893 cashProportion[4] + 0.1461733103524148 x[2,1]
   + 0.0569327808133778 x[2,2] + 0.1383805786790862 x[2,3]
   + 0.1357585536690014 x[2,4] + 0.1152957570868019 x[2,5]
   + 0.0886904543620962 x[2,6] + 0.1720818511863288 x[2,7]
   - 0.1461733103524148 x[4,1] - 0.0569327808133778 x[4,2]
   - 0.1383805786790862 x[4,3] - 0.1357585536690014 x[4,4]
   - 0.1152957570868019 x[4,5] - 0.0886904543620962 x[4,6]
   - 0.1720818511863288 x[4,7] >= 0
 findWorstP[3,1]: z - 0.2963950946611834 cashProportion[1]
   + 0.2963950946611834 cashProportion[3] - 0.2136638138638805 x[1,1]
   - 0.0283798303138083 x[1,2] - 0.00429772887258716 x[1,3]
   - 0.2320032603460412 x[1,4] - 0.091437886702975 x[1,5]
   - 0.0080397169426846 x[1,6] - 0.1257826682968397 x[1,7]
   + 0.2136638138638805 x[3,1] + 0.0283798303138083 x[3,2]
   + 0.00429772887258716 x[3,3] + 0.2320032603460412 x[3,4]
   + 0.091437886702975 x[3,5] + 0.0080397169426846 x[3,6]
   + 0.1257826682968397 x[3,7] >= 0
 findWorstP[3,2]: z - 0.2963950946611834 cashProportion[2]
   + 0.2963950946611834 cashProportion[3] - 0.2136638138638805 x[2,1]
   - 0.0283798303138083 x[2,2] - 0.00429772887258716 x[2,3]
   - 0.2320032603460412 x[2,4] - 0.091437886702975 x[2,5]
   - 0.0080397169426846 x[2,6] - 0.1257826682968397 x[2,7]
   + 0.2136638138638805 x[3,1] + 0.0283798303138083 x[3,2]
   + 0.00429772887258716 x[3,3] + 0.2320032603460412 x[3,4]
   + 0.091437886702975 x[3,5] + 0.0080397169426846 x[3,6]
   + 0.1257826682968397 x[3,7] >= 0
 findWorstP[3,4]: z + 0.2963950946611834 cashProportion[3]
   - 0.2963950946611834 cashProportion[4] + 0.2136638138638805 x[3,1]
   + 0.0283798303138083 x[3,2] + 0.00429772887258716 x[3,3]
   + 0.2320032603460412 x[3,4] + 0.091437886702975 x[3,5]
   + 0.0080397169426846 x[3,6] + 0.1257826682968397 x[3,7]
   - 0.2136638138638805 x[4,1] - 0.0283798303138083 x[4,2]
   - 0.00429772887258716 x[4,3] - 0.2320032603460412 x[4,4]
   - 0.091437886702975 x[4,5] - 0.0080397169426846 x[4,6]
   - 0.1257826682968397 x[4,7] >= 0
 findWorstP[4,1]: z - 0.1690367020939422 cashProportion[1]
   + 0.1690367020939422 cashProportion[4] - 0.0232848057134405 x[1,1]
   - 0.2052316859298075 x[1,2] - 0.1605426078137215 x[1,3]
   - 0.0975764362837281 x[1,4] - 0.0980835463900099 x[1,5]
   - 0.1607327741035772 x[1,6] - 0.085511441671773 x[1,7]
   + 0.0232848057134405 x[4,1] + 0.2052316859298075 x[4,2]
   + 0.1605426078137215 x[4,3] + 0.0975764362837281 x[4,4]
   + 0.0980835463900099 x[4,5] + 0.1607327741035772 x[4,6]
   + 0.085511441671773 x[4,7] >= 0
 findWorstP[4,2]: z - 0.1690367020939422 cashProportion[2]
   + 0.1690367020939422 cashProportion[4] - 0.0232848057134405 x[2,1]
   - 0.2052316859298075 x[2,2] - 0.1605426078137215 x[2,3]
   - 0.0975764362837281 x[2,4] - 0.0980835463900099 x[2,5]
   - 0.1607327741035772 x[2,6] - 0.085511441671773 x[2,7]
   + 0.0232848057134405 x[4,1] + 0.2052316859298075 x[4,2]
   + 0.1605426078137215 x[4,3] + 0.0975764362837281 x[4,4]
   + 0.0980835463900099 x[4,5] + 0.1607327741035772 x[4,6]
   + 0.085511441671773 x[4,7] >= 0
 findWorstP[4,3]: z - 0.1690367020939422 cashProportion[3]
   + 0.1690367020939422 cashProportion[4] - 0.0232848057134405 x[3,1]
   - 0.2052316859298075 x[3,2] - 0.1605426078137215 x[3,3]
   - 0.0975764362837281 x[3,4] - 0.0980835463900099 x[3,5]
   - 0.1607327741035772 x[3,6] - 0.085511441671773 x[3,7]
   + 0.0232848057134405 x[4,1] + 0.2052316859298075 x[4,2]
   + 0.1605426078137215 x[4,3] + 0.0975764362837281 x[4,4]
   + 0.0980835463900099 x[4,5] + 0.1607327741035772 x[4,6]
   + 0.085511441671773 x[4,7] >= 0
Bounds
 z <= 1
 -infinity <= cashProportion[1] <= 1
 -infinity <= cashProportion[2] <= 1
 -infinity <= cashProportion[3] <= 1
 -infinity <= cashProportion[4] <= 1
Binaries
 x[1,1] x[1,2] x[1,3] x[1,4] x[1,5] x[1,6] x[1,7] x[2,1] x[2,2] x[2,3]
 x[2,4] x[2,5] x[2,6] x[2,7] x[3,1] x[3,2] x[3,3] x[3,4] x[3,5] x[3,6]
 x[3,7] x[4,1] x[4,2] x[4,3] x[4,4] x[4,5] x[4,6] x[4,7]
End
