data/mps_files/q3/67_8.mps
NAME foo
ROWS
 N  OBJ
 E  allocateEach[1]
 E  allocateEach[2]
 E  allocateEach[3]
 E  allocateEach[4]
 E  allocateEach[5]
 E  allocateEach[6]
 E  allocateEach[7]
 E  allocateAllCash
 G  findWorstP[1,2]
 G  findWorstP[1,3]
 G  findWorstP[1,4]
 G  findWorstP[2,1]
 G  findWorstP[2,3]
 G  findWorstP[2,4]
 G  findWorstP[3,1]
 G  findWorstP[3,2]
 G  findWorstP[3,4]
 G  findWorstP[4,1]
 G  findWorstP[4,2]
 G  findWorstP[4,3]
COLUMNS
    z         OBJ       1
    z         findWorstP[1,2]  1
    z         findWorstP[1,3]  1
    z         findWorstP[1,4]  1
    z         findWorstP[2,1]  1
    z         findWorstP[2,3]  1
    z         findWorstP[2,4]  1
    z         findWorstP[3,1]  1
    z         findWorstP[3,2]  1
    z         findWorstP[3,4]  1
    z         findWorstP[4,1]  1
    z         findWorstP[4,2]  1
    z         findWorstP[4,3]  1
    cashProportion[1]  allocateAllCash  1
    cashProportion[1]  findWorstP[1,2]  1.4432617716038251e-01
    cashProportion[1]  findWorstP[1,3]  1.4432617716038251e-01
    cashProportion[1]  findWorstP[1,4]  1.4432617716038251e-01
    cashProportion[1]  findWorstP[2,1]  -0.146686713850893
    cashProportion[1]  findWorstP[3,1]  -2.9639509466118336e-01
    cashProportion[1]  findWorstP[4,1]  -1.6903670209394217e-01
    cashProportion[2]  allocateAllCash  1
    cashProportion[2]  findWorstP[1,2]  -1.4432617716038251e-01
    cashProportion[2]  findWorstP[2,1]  0.146686713850893
    cashProportion[2]  findWorstP[2,3]  0.146686713850893
    cashProportion[2]  findWorstP[2,4]  0.146686713850893
    cashProportion[2]  findWorstP[3,2]  -2.9639509466118336e-01
    cashProportion[2]  findWorstP[4,2]  -1.6903670209394217e-01
    cashProportion[3]  allocateAllCash  1
    cashProportion[3]  findWorstP[1,3]  -1.4432617716038251e-01
    cashProportion[3]  findWorstP[2,3]  -0.146686713850893
    cashProportion[3]  findWorstP[3,1]  2.9639509466118336e-01
    cashProportion[3]  findWorstP[3,2]  2.9639509466118336e-01
    cashProportion[3]  findWorstP[3,4]  2.9639509466118336e-01
    cashProportion[3]  findWorstP[4,3]  -1.6903670209394217e-01
    cashProportion[4]  allocateAllCash  1
    cashProportion[4]  findWorstP[1,4]  -1.4432617716038251e-01
    cashProportion[4]  findWorstP[2,4]  -0.146686713850893
    cashProportion[4]  findWorstP[3,4]  -2.9639509466118336e-01
    cashProportion[4]  findWorstP[4,1]  1.6903670209394217e-01
    cashProportion[4]  findWorstP[4,2]  1.6903670209394217e-01
    cashProportion[4]  findWorstP[4,3]  1.6903670209394217e-01
    MARKER    'MARKER'                 'INTORG'
    x[1,1]    allocateEach[1]  1
    x[1,1]    findWorstP[1,2]  1.6833844488544111e-01
    x[1,1]    findWorstP[1,3]  1.6833844488544111e-01
    x[1,1]    findWorstP[1,4]  1.6833844488544111e-01
    x[1,1]    findWorstP[2,1]  -1.4617331035241485e-01
    x[1,1]    findWorstP[3,1]  -2.1366381386388050e-01
    x[1,1]    findWorstP[4,1]  -2.3284805713440528e-02
    x[1,2]    allocateEach[2]  1
    x[1,2]    findWorstP[1,2]  0.0712069276565037
    x[1,2]    findWorstP[1,3]  0.0712069276565037
    x[1,2]    findWorstP[1,4]  0.0712069276565037
    x[1,2]    findWorstP[2,1]  -5.6932780813377826e-02
    x[1,2]    findWorstP[3,1]  -0.0283798303138083
    x[1,2]    findWorstP[4,1]  -2.0523168592980751e-01
    x[1,3]    allocateEach[3]  1
    x[1,3]    findWorstP[1,2]  1.6803175175897531e-01
    x[1,3]    findWorstP[1,3]  1.6803175175897531e-01
    x[1,3]    findWorstP[1,4]  1.6803175175897531e-01
    x[1,3]    findWorstP[2,1]  -1.3838057867908615e-01
    x[1,3]    findWorstP[3,1]  -4.2977288725871577e-03
    x[1,3]    findWorstP[4,1]  -1.6054260781372154e-01
    x[1,4]    allocateEach[4]  1
    x[1,4]    findWorstP[1,2]  4.1854591376510918e-03
    x[1,4]    findWorstP[1,3]  4.1854591376510918e-03
    x[1,4]    findWorstP[1,4]  4.1854591376510918e-03
    x[1,4]    findWorstP[2,1]  -1.3575855366900141e-01
    x[1,4]    findWorstP[3,1]  -2.3200326034604121e-01
    x[1,4]    findWorstP[4,1]  -9.7576436283728085e-02
    x[1,5]    allocateEach[5]  1
    x[1,5]    findWorstP[1,2]  1.5040591737326359e-01
    x[1,5]    findWorstP[1,3]  1.5040591737326359e-01
    x[1,5]    findWorstP[1,4]  1.5040591737326359e-01
    x[1,5]    findWorstP[2,1]  -1.1529575708680187e-01
    x[1,5]    findWorstP[3,1]  -9.1437886702975049e-02
    x[1,5]    findWorstP[4,1]  -9.8083546390009921e-02
    x[1,6]    allocateEach[6]  1
    x[1,6]    findWorstP[1,2]  1.7515785675626919e-01
    x[1,6]    findWorstP[1,3]  1.7515785675626919e-01
    x[1,6]    findWorstP[1,4]  1.7515785675626919e-01
    x[1,6]    findWorstP[2,1]  -8.8690454362096161e-02
    x[1,6]    findWorstP[3,1]  -8.0397169426845976e-03
    x[1,6]    findWorstP[4,1]  -1.6073277410357723e-01
    x[1,7]    allocateEach[7]  1
    x[1,7]    findWorstP[1,2]  1.1834746527151363e-01
    x[1,7]    findWorstP[1,3]  1.1834746527151363e-01
    x[1,7]    findWorstP[1,4]  1.1834746527151363e-01
    x[1,7]    findWorstP[2,1]  -1.7208185118632879e-01
    x[1,7]    findWorstP[3,1]  -1.2578266829683968e-01
    x[1,7]    findWorstP[4,1]  -8.5511441671772978e-02
    x[2,1]    allocateEach[1]  1
    x[2,1]    findWorstP[1,2]  -1.6833844488544111e-01
    x[2,1]    findWorstP[2,1]  1.4617331035241485e-01
    x[2,1]    findWorstP[2,3]  1.4617331035241485e-01
    x[2,1]    findWorstP[2,4]  1.4617331035241485e-01
    x[2,1]    findWorstP[3,2]  -2.1366381386388050e-01
    x[2,1]    findWorstP[4,2]  -2.3284805713440528e-02
    x[2,2]    allocateEach[2]  1
    x[2,2]    findWorstP[1,2]  -0.0712069276565037
    x[2,2]    findWorstP[2,1]  5.6932780813377826e-02
    x[2,2]    findWorstP[2,3]  5.6932780813377826e-02
    x[2,2]    findWorstP[2,4]  5.6932780813377826e-02
    x[2,2]    findWorstP[3,2]  -0.0283798303138083
    x[2,2]    findWorstP[4,2]  -2.0523168592980751e-01
    x[2,3]    allocateEach[3]  1
    x[2,3]    findWorstP[1,2]  -1.6803175175897531e-01
    x[2,3]    findWorstP[2,1]  1.3838057867908615e-01
    x[2,3]    findWorstP[2,3]  1.3838057867908615e-01
    x[2,3]    findWorstP[2,4]  1.3838057867908615e-01
    x[2,3]    findWorstP[3,2]  -4.2977288725871577e-03
    x[2,3]    findWorstP[4,2]  -1.6054260781372154e-01
    x[2,4]    allocateEach[4]  1
    x[2,4]    findWorstP[1,2]  -4.1854591376510918e-03
    x[2,4]    findWorstP[2,1]  1.3575855366900141e-01
    x[2,4]    findWorstP[2,3]  1.3575855366900141e-01
    x[2,4]    findWorstP[2,4]  1.3575855366900141e-01
    x[2,4]    findWorstP[3,2]  -2.3200326034604121e-01
    x[2,4]    findWorstP[4,2]  -9.7576436283728085e-02
    x[2,5]    allocateEach[5]  1
    x[2,5]    findWorstP[1,2]  -1.5040591737326359e-01
    x[2,5]    findWorstP[2,1]  1.1529575708680187e-01
    x[2,5]    findWorstP[2,3]  1.1529575708680187e-01
    x[2,5]    findWorstP[2,4]  1.1529575708680187e-01
    x[2,5]    findWorstP[3,2]  -9.1437886702975049e-02
    x[2,5]    findWorstP[4,2]  -9.8083546390009921e-02
    x[2,6]    allocateEach[6]  1
    x[2,6]    findWorstP[1,2]  -1.7515785675626919e-01
    x[2,6]    findWorstP[2,1]  8.8690454362096161e-02
    x[2,6]    findWorstP[2,3]  8.8690454362096161e-02
    x[2,6]    findWorstP[2,4]  8.8690454362096161e-02
    x[2,6]    findWorstP[3,2]  -8.0397169426845976e-03
    x[2,6]    findWorstP[4,2]  -1.6073277410357723e-01
    x[2,7]    allocateEach[7]  1
    x[2,7]    findWorstP[1,2]  -1.1834746527151363e-01
    x[2,7]    findWorstP[2,1]  1.7208185118632879e-01
    x[2,7]    findWorstP[2,3]  1.7208185118632879e-01
    x[2,7]    findWorstP[2,4]  1.7208185118632879e-01
    x[2,7]    findWorstP[3,2]  -1.2578266829683968e-01
    x[2,7]    findWorstP[4,2]  -8.5511441671772978e-02
    x[3,1]    allocateEach[1]  1
    x[3,1]    findWorstP[1,3]  -1.6833844488544111e-01
    x[3,1]    findWorstP[2,3]  -1.4617331035241485e-01
    x[3,1]    findWorstP[3,1]  2.1366381386388050e-01
    x[3,1]    findWorstP[3,2]  2.1366381386388050e-01
    x[3,1]    findWorstP[3,4]  2.1366381386388050e-01
    x[3,1]    findWorstP[4,3]  -2.3284805713440528e-02
    x[3,2]    allocateEach[2]  1
    x[3,2]    findWorstP[1,3]  -0.0712069276565037
    x[3,2]    findWorstP[2,3]  -5.6932780813377826e-02
    x[3,2]    findWorstP[3,1]  0.0283798303138083
    x[3,2]    findWorstP[3,2]  0.0283798303138083
    x[3,2]    findWorstP[3,4]  0.0283798303138083
    x[3,2]    findWorstP[4,3]  -2.0523168592980751e-01
    x[3,3]    allocateEach[3]  1
    x[3,3]    findWorstP[1,3]  -1.6803175175897531e-01
    x[3,3]    findWorstP[2,3]  -1.3838057867908615e-01
    x[3,3]    findWorstP[3,1]  4.2977288725871577e-03
    x[3,3]    findWorstP[3,2]  4.2977288725871577e-03
    x[3,3]    findWorstP[3,4]  4.2977288725871577e-03
    x[3,3]    findWorstP[4,3]  -1.6054260781372154e-01
    x[3,4]    allocateEach[4]  1
    x[3,4]    findWorstP[1,3]  -4.1854591376510918e-03
    x[3,4]    findWorstP[2,3]  -1.3575855366900141e-01
    x[3,4]    findWorstP[3,1]  2.3200326034604121e-01
    x[3,4]    findWorstP[3,2]  2.3200326034604121e-01
    x[3,4]    findWorstP[3,4]  2.3200326034604121e-01
    x[3,4]    findWorstP[4,3]  -9.7576436283728085e-02
    x[3,5]    allocateEach[5]  1
    x[3,5]    findWorstP[1,3]  -1.5040591737326359e-01
    x[3,5]    findWorstP[2,3]  -1.1529575708680187e-01
    x[3,5]    findWorstP[3,1]  9.1437886702975049e-02
    x[3,5]    findWorstP[3,2]  9.1437886702975049e-02
    x[3,5]    findWorstP[3,4]  9.1437886702975049e-02
    x[3,5]    findWorstP[4,3]  -9.8083546390009921e-02
    x[3,6]    allocateEach[6]  1
    x[3,6]    findWorstP[1,3]  -1.7515785675626919e-01
    x[3,6]    findWorstP[2,3]  -8.8690454362096161e-02
    x[3,6]    findWorstP[3,1]  8.0397169426845976e-03
    x[3,6]    findWorstP[3,2]  8.0397169426845976e-03
    x[3,6]    findWorstP[3,4]  8.0397169426845976e-03
    x[3,6]    findWorstP[4,3]  -1.6073277410357723e-01
    x[3,7]    allocateEach[7]  1
    x[3,7]    findWorstP[1,3]  -1.1834746527151363e-01
    x[3,7]    findWorstP[2,3]  -1.7208185118632879e-01
    x[3,7]    findWorstP[3,1]  1.2578266829683968e-01
    x[3,7]    findWorstP[3,2]  1.2578266829683968e-01
    x[3,7]    findWorstP[3,4]  1.2578266829683968e-01
    x[3,7]    findWorstP[4,3]  -8.5511441671772978e-02
    x[4,1]    allocateEach[1]  1
    x[4,1]    findWorstP[1,4]  -1.6833844488544111e-01
    x[4,1]    findWorstP[2,4]  -1.4617331035241485e-01
    x[4,1]    findWorstP[3,4]  -2.1366381386388050e-01
    x[4,1]    findWorstP[4,1]  2.3284805713440528e-02
    x[4,1]    findWorstP[4,2]  2.3284805713440528e-02
    x[4,1]    findWorstP[4,3]  2.3284805713440528e-02
    x[4,2]    allocateEach[2]  1
    x[4,2]    findWorstP[1,4]  -0.0712069276565037
    x[4,2]    findWorstP[2,4]  -5.6932780813377826e-02
    x[4,2]    findWorstP[3,4]  -0.0283798303138083
    x[4,2]    findWorstP[4,1]  2.0523168592980751e-01
    x[4,2]    findWorstP[4,2]  2.0523168592980751e-01
    x[4,2]    findWorstP[4,3]  2.0523168592980751e-01
    x[4,3]    allocateEach[3]  1
    x[4,3]    findWorstP[1,4]  -1.6803175175897531e-01
    x[4,3]    findWorstP[2,4]  -1.3838057867908615e-01
    x[4,3]    findWorstP[3,4]  -4.2977288725871577e-03
    x[4,3]    findWorstP[4,1]  1.6054260781372154e-01
    x[4,3]    findWorstP[4,2]  1.6054260781372154e-01
    x[4,3]    findWorstP[4,3]  1.6054260781372154e-01
    x[4,4]    allocateEach[4]  1
    x[4,4]    findWorstP[1,4]  -4.1854591376510918e-03
    x[4,4]    findWorstP[2,4]  -1.3575855366900141e-01
    x[4,4]    findWorstP[3,4]  -2.3200326034604121e-01
    x[4,4]    findWorstP[4,1]  9.7576436283728085e-02
    x[4,4]    findWorstP[4,2]  9.7576436283728085e-02
    x[4,4]    findWorstP[4,3]  9.7576436283728085e-02
    x[4,5]    allocateEach[5]  1
    x[4,5]    findWorstP[1,4]  -1.5040591737326359e-01
    x[4,5]    findWorstP[2,4]  -1.1529575708680187e-01
    x[4,5]    findWorstP[3,4]  -9.1437886702975049e-02
    x[4,5]    findWorstP[4,1]  9.8083546390009921e-02
    x[4,5]    findWorstP[4,2]  9.8083546390009921e-02
    x[4,5]    findWorstP[4,3]  9.8083546390009921e-02
    x[4,6]    allocateEach[6]  1
    x[4,6]    findWorstP[1,4]  -1.7515785675626919e-01
    x[4,6]    findWorstP[2,4]  -8.8690454362096161e-02
    x[4,6]    findWorstP[3,4]  -8.0397169426845976e-03
    x[4,6]    findWorstP[4,1]  1.6073277410357723e-01
    x[4,6]    findWorstP[4,2]  1.6073277410357723e-01
    x[4,6]    findWorstP[4,3]  1.6073277410357723e-01
    x[4,7]    allocateEach[7]  1
    x[4,7]    findWorstP[1,4]  -1.1834746527151363e-01
    x[4,7]    findWorstP[2,4]  -1.7208185118632879e-01
    x[4,7]    findWorstP[3,4]  -1.2578266829683968e-01
    x[4,7]    findWorstP[4,1]  8.5511441671772978e-02
    x[4,7]    findWorstP[4,2]  8.5511441671772978e-02
    x[4,7]    findWorstP[4,3]  8.5511441671772978e-02
    MARKER    'MARKER'                 'INTEND'
RHS
    RHS1      allocateEach[1]  1
    RHS1      allocateEach[2]  1
    RHS1      allocateEach[3]  1
    RHS1      allocateEach[4]  1
    RHS1      allocateEach[5]  1
    RHS1      allocateEach[6]  1
    RHS1      allocateEach[7]  1
    RHS1      allocateAllCash  1
BOUNDS
 UP BND1      z         1
 MI BND1      cashProportion[1]
 UP BND1      cashProportion[1]  1
 MI BND1      cashProportion[2]
 UP BND1      cashProportion[2]  1
 MI BND1      cashProportion[3]
 UP BND1      cashProportion[3]  1
 MI BND1      cashProportion[4]
 UP BND1      cashProportion[4]  1
 BV BND1      x[1,1]  
 BV BND1      x[1,2]  
 BV BND1      x[1,3]  
 BV BND1      x[1,4]  
 BV BND1      x[1,5]  
 BV BND1      x[1,6]  
 BV BND1      x[1,7]  
 BV BND1      x[2,1]  
 BV BND1      x[2,2]  
 BV BND1      x[2,3]  
 BV BND1      x[2,4]  
 BV BND1      x[2,5]  
 BV BND1      x[2,6]  
 BV BND1      x[2,7]  
 BV BND1      x[3,1]  
 BV BND1      x[3,2]  
 BV BND1      x[3,3]  
 BV BND1      x[3,4]  
 BV BND1      x[3,5]  
 BV BND1      x[3,6]  
 BV BND1      x[3,7]  
 BV BND1      x[4,1]  
 BV BND1      x[4,2]  
 BV BND1      x[4,3]  
 BV BND1      x[4,4]  
 BV BND1      x[4,5]  
 BV BND1      x[4,6]  
 BV BND1      x[4,7]  
ENDATA
